c 12 Maven
c 60 AngularJS
c 21 Server
c 43 PostgreSQL
c 45 False
c 1 Consul
c 40 MessageBroker
c 47 SearchEngine
c 26 MySQL
c 44 MySql
c 29 EhCache
c 42 Client
c 4 AuthenticationType
c 17 ServerSideOption
c 59 LibSass
c 11 HibernateCache
c 3 JWT
c 28 HTTPSession
c 20 SwaggerCodegen
c 24 SQL
c 13 ApplicationType
c 37 Angular4
c 9 Uaa
c 49 Oracle12c
c 39 MicroserviceApplication
c 27 MongoDB
c 34 NoDB
c 38 ClientFrameWork
c 54 MariaDBDev
c 14 Application
c 33 Cucumber
c 50 NoHB
c 15 H2InMemory
c 18 Gatling
c 31 Cassandra
c 52 SocialLogIn
c 6 Oauth2
c 56 H2DiskBased
c 22 ProDataBaseType
c 48 ClusteredHttpSession
c 46 MsSQL
c 41 MsSql
c 36 Oracle
c 25 DataBaseType
c 55 jhipster
c 2 ServiceDiscoveryType
c 32 MicroserviceGateway
c 23 MariaDB
c 30 WebSocket
c 58 Monolithic
c 16 DevDataBaseType
c 10 HazelCast
c 19 TestFramework
c 53 UaaServer
c 8 BuildTool
c 51 Protractor
c 57 PostgreSQLDev
c 7 Gradle
c 35 Infinispan
c 5 Eureka
p cnf 61 671
-1 2 0
-3 4 0
-5 2 0
-6 4 0
-7 8 0
-9 4 0
-10 11 0
-6 4 0
-1 2 0
-12 8 0
-13 14 0
-15 16 0
-4 17 0
-18 19 0
-20 21 0
-6 4 0
-1 2 0
-22 17 0
-23 22 0
-24 25 0
-26 22 0
-4 17 0
-27 25 0
-28 4 0
-9 4 0
-4 17 0
-24 25 0
-29 11 0
-3 4 0
-30 21 0
-29 11 0
-31 25 0
-3 4 0
-1 2 0
-32 13 0
-22 17 0
-26 22 0
-30 21 0
-33 19 0
-34 25 0
-34 25 0
-3 4 0
-25 17 0
-35 11 0
-12 8 0
-5 2 0
-5 2 0
-24 25 0
-29 11 0
-24 25 0
-19 14 0
-36 22 0
-9 4 0
-3 4 0
-37 38 0
-19 14 0
-10 11 0
-27 25 0
-35 11 0
-39 13 0
-29 11 0
-32 13 0
-31 25 0
-40 21 0
-2 17 0
-1 2 0
-1 2 0
-41 16 0
-20 21 0
-6 4 0
-3 4 0
-26 22 0
-27 25 0
-1 2 0
-13 14 0
-37 38 0
-10 11 0
-35 11 0
-10 11 0
-38 42 0
-35 11 0
-8 17 0
-43 22 0
-44 16 0
-1 2 0
-3 4 0
-11 17 0
-4 17 0
-26 22 0
-44 16 0
-1 2 0
-24 25 0
-34 25 0
-29 11 0
-34 25 0
-31 25 0
-27 25 0
-28 4 0
-3 4 0
-31 25 0
-15 16 0
-41 16 0
-45 2 0
-45 2 0
-46 22 0
-10 11 0
-45 2 0
-16 17 0
-43 22 0
-31 25 0
-33 19 0
-8 17 0
-34 25 0
-47 21 0
-48 21 0
-25 17 0
-9 4 0
-1 2 0
-26 22 0
-34 25 0
-39 13 0
-49 16 0
-26 22 0
-25 17 0
-5 2 0
-6 4 0
-44 16 0
-49 16 0
-45 2 0
-13 14 0
-17 21 0
-8 17 0
-8 17 0
-24 25 0
-34 25 0
-11 17 0
-11 17 0
-9 4 0
-5 2 0
-5 2 0
-43 22 0
-22 17 0
-32 13 0
-24 25 0
-29 11 0
-24 25 0
-6 4 0
-29 11 0
-7 8 0
-40 21 0
-2 17 0
-7 8 0
-50 11 0
-46 22 0
-25 17 0
-12 8 0
-18 19 0
-7 8 0
-10 11 0
-12 8 0
-51 19 0
-16 17 0
-52 21 0
-53 13 0
-5 2 0
-12 8 0
-1 2 0
-54 16 0
-39 13 0
-11 17 0
-30 21 0
-16 17 0
-50 11 0
-6 4 0
-10 11 0
-9 4 0
-8 17 0
-50 11 0
-34 25 0
-46 22 0
-53 13 0
-51 19 0
-43 22 0
-12 8 0
-10 11 0
-45 2 0
-14 55 0
-4 17 0
-9 4 0
-27 25 0
-29 11 0
-23 22 0
-5 2 0
-36 22 0
-31 25 0
-2 17 0
-45 2 0
-12 8 0
-49 16 0
-18 19 0
-7 8 0
-12 8 0
-25 17 0
-10 11 0
-45 2 0
-26 22 0
-18 19 0
-56 16 0
-41 16 0
-50 11 0
-10 11 0
-21 55 0
-57 16 0
-35 11 0
-29 11 0
-32 13 0
-28 4 0
-7 8 0
-12 8 0
-54 16 0
-3 4 0
-28 4 0
-35 11 0
-43 22 0
-1 2 0
-31 25 0
-23 22 0
-6 4 0
-58 13 0
-9 4 0
-25 17 0
-58 13 0
-22 17 0
-22 17 0
-53 13 0
-29 11 0
-53 13 0
-3 4 0
-10 11 0
-3 4 0
-50 11 0
-50 11 0
-41 16 0
-11 17 0
-5 2 0
-42 55 0
-9 4 0
-29 11 0
-7 8 0
-31 25 0
-24 25 0
-28 4 0
-56 16 0
-52 21 0
-34 25 0
-44 16 0
-12 8 0
-24 25 0
-56 16 0
-29 11 0
-31 25 0
-56 16 0
-28 4 0
-5 2 0
-36 22 0
-46 22 0
-44 16 0
-48 21 0
-50 11 0
-12 8 0
-53 13 0
-57 16 0
-3 4 0
-47 21 0
-31 25 0
-3 4 0
-2 17 0
-27 25 0
-27 25 0
-56 16 0
-9 4 0
-6 4 0
-35 11 0
-48 21 0
-23 22 0
-59 42 0
-2 17 0
-34 25 0
-22 17 0
-46 22 0
-4 17 0
-11 17 0
-54 16 0
-49 16 0
-8 17 0
-19 14 0
-7 8 0
-13 14 0
-36 22 0
-50 11 0
-9 4 0
-6 4 0
-21 55 0
-35 11 0
-18 19 0
-50 11 0
-36 22 0
-57 16 0
-33 19 0
-39 13 0
-1 2 0
-45 2 0
-37 38 0
-27 25 0
-26 22 0
-40 21 0
-7 8 0
-50 11 0
-16 17 0
-33 19 0
-6 4 0
-9 4 0
-12 8 0
-17 21 0
-53 13 0
-52 21 0
-2 17 0
-30 21 0
-53 13 0
-23 22 0
-43 22 0
-10 11 0
-12 8 0
-20 21 0
-28 4 0
-51 19 0
-51 19 0
-34 25 0
-29 11 0
-7 8 0
-24 25 0
-4 17 0
-9 4 0
-29 11 0
-39 13 0
-36 22 0
-37 38 0
-46 22 0
-8 17 0
-41 16 0
-28 4 0
-24 25 0
-35 11 0
-44 16 0
-35 11 0
-15 16 0
-43 22 0
-35 11 0
-57 16 0
-27 25 0
-25 17 0
-12 8 0
-31 25 0
-39 13 0
-54 16 0
-51 19 0
-54 16 0
-27 25 0
-32 13 0
-9 4 0
-50 11 0
-28 4 0
-16 17 0
-44 16 0
-58 13 0
-15 16 0
-36 22 0
-49 16 0
-12 8 0
-33 19 0
-2 17 0
-32 13 0
-17 21 0
-57 16 0
-47 21 0
-10 11 0
-32 13 0
-58 13 0
-43 22 0
-18 19 0
-31 25 0
-35 11 0
-42 55 0
-53 13 0
-6 4 0
-27 25 0
-31 25 0
-56 16 0
-10 11 0
-28 4 0
-24 25 0
-12 8 0
-36 22 0
-50 11 0
-45 2 0
-4 17 0
-50 11 0
-24 25 0
-48 21 0
-54 16 0
-49 16 0
-5 2 0
-60 38 0
-15 16 0
-8 17 0
-57 16 0
-27 25 0
-17 21 0
-9 4 0
-45 2 0
-19 14 0
-15 16 0
-57 16 0
-5 2 0
-11 17 0
-23 22 0
-27 25 0
-28 4 0
-60 38 0
-6 4 0
-49 16 0
-58 13 0
-1 2 0
-39 13 0
-1 2 0
-10 11 0
-45 2 0
-34 25 0
-58 13 0
-9 4 0
-29 11 0
-49 16 0
-29 11 0
-50 11 0
-5 2 0
-6 4 0
-15 16 0
-54 16 0
-58 13 0
-57 16 0
-35 11 0
-47 21 0
-41 16 0
-60 38 0
-35 11 0
-28 4 0
-52 21 0
-41 16 0
-27 25 0
-18 19 0
-24 25 0
-45 2 0
-41 16 0
-46 22 0
-28 4 0
-54 16 0
-28 4 0
-6 4 0
-22 17 0
-45 2 0
-44 16 0
-50 11 0
-1 2 0
-51 19 0
-34 25 0
-60 38 0
-16 17 0
-34 25 0
-5 2 0
-51 19 0
-6 4 0
-31 25 0
-7 8 0
-39 13 0
-35 11 0
-32 13 0
-45 2 0
-2 17 0
-10 11 0
-35 11 0
-56 16 0
-5 2 0
-23 22 0
-7 8 0
-24 25 0
-14 55 0
-7 8 0
-50 11 0
-46 22 0
-7 8 0
-3 4 0
-7 8 0
-5 2 0
-3 4 0
-18 19 0
-28 4 0
-31 25 0
-45 2 0
-56 16 0
-27 25 0
-7 8 0
-38 42 0
-20 21 0
-33 19 0
-11 17 0
-27 25 0
-28 4 0
-16 17 0
-16 17 0
-3 4 0
-22 17 0
-31 25 0
-23 22 0
-33 19 0
-59 42 0
-58 13 0
-45 2 0
-40 21 0
-34 25 0
-34 25 0
-51 19 0
-15 16 0
-33 19 0
-25 17 0
55 0
-55 21 0
-17 4 0
-13 32 58 39 53 0
-32 -58 0
-32 -39 0
-58 -53 0
-32 -53 0
-39 -53 0
-58 -39 0
-14 19 0
-8 7 12 0
-7 -12 0
-17 2 0
-14 13 0
-17 8 0
-17 11 0
61 55 0
-2 1 5 45 0
-1 -5 0
-5 -45 0
-1 -45 0
-25 24 34 31 27 0
-24 -27 0
-24 -31 0
-34 -31 0
-24 -34 0
-31 -27 0
-34 -27 0
-42 38 0
-21 17 0
-55 14 0
-22 26 46 36 23 43 0
-26 -46 0
-46 -36 0
-46 -43 0
-23 -43 0
-26 -36 0
-36 -43 0
-46 -23 0
-36 -23 0
-26 -23 0
-26 -43 0
-38 60 37 0
-60 -37 0
-4 28 9 6 3 0
-9 -3 0
-28 -9 0
-9 -6 0
-28 -3 0
-6 -3 0
-28 -6 0
-17 25 0
-16 49 15 57 54 41 44 56 0
-15 -44 0
-41 -44 0
-49 -44 0
-54 -56 0
-15 -41 0
-15 -57 0
-49 -57 0
-57 -41 0
-15 -54 0
-49 -15 0
-44 -56 0
-54 -44 0
-57 -56 0
-49 -41 0
-49 -54 0
-49 -56 0
-15 -56 0
-57 -54 0
-41 -56 0
-57 -44 0
-54 -41 0
-11 35 50 10 29 0
-35 -50 0
-50 -29 0
-10 -29 0
-35 -29 0
-35 -10 0
-50 -10 0
-58 -9 0
-27 32 50 0
-31 32 50 0
-34 50 0
24 -47 0
-24 -46 56 15 41 0
-32 10 0
-39 -42 0
-39 33 0
-39 18 0
-39 -51 0
-53 -42 0
-53 33 0
-53 18 0
-53 -51 0
58 32 -48 0
50 10 -48 0
58 32 -30 0
-36 0
-9 0
-41 0
-24 -36 56 15 49 0
-46 0
-24 -26 56 15 44 0
-49 0
-53 9 0
39 9 -34 0
39 32 -34 0
-54 0
-58 45 5 0
-24 -23 56 15 54 0
-23 0
-24 22 0
-6 24 27 0
-24 -43 56 15 57 0
-31 -52 0
58 -52 0
28 3 -52 0
-32 3 9 0
-39 3 9 0
-27 -16 0
-27 -22 0
-31 -16 0
-31 -22 0
-34 -16 0
-34 -22 0
-5 9 3 0
-58 42 0
-58 33 0
-58 51 0
-58 18 0
-32 42 0
-32 33 0
-32 51 0
-32 18 0
